c Random 3-CNF over 25 variables and 50 clauses
c Generated with `cnfgen`
c (C) 2012-2016 Massimo Lauria <lauria.massimo@gmail.com>
c https://massimolauria.github.io/cnfgen
c
c COMMAND LINE: cnfgen randkcnf 3 25 50
c
p cnf 25 50
1 -9 -11 0
9 13 -25 0
18 24 -25 0
-5 -16 -17 0
-4 11 21 0
1 -15 20 0
2 3 -20 0
3 -4 -17 0
2 14 -20 0
-14 -17 21 0
5 7 -19 0
-2 -23 -25 0
8 -10 -13 0
2 -9 18 0
3 -4 -14 0
-17 -19 24 0
8 -14 -16 0
6 11 13 0
-11 -13 24 0
5 10 -12 0
-11 18 -25 0
-4 -9 19 0
11 16 23 0
-8 -13 24 0
1 2 4 0
-8 -12 13 0
7 14 -24 0
6 -7 16 0
7 -16 -21 0
-6 7 -16 0
-2 -15 -16 0
2 -8 -23 0
-5 -7 23 0
1 -13 20 0
-14 -17 19 0
17 -22 -24 0
6 -10 25 0
-15 16 -17 0
-6 -15 -21 0
11 16 17 0
-1 5 -21 0
-3 14 23 0
2 12 -14 0
7 19 -22 0
4 -6 22 0
3 13 -15 0
2 7 10 0
10 -14 24 0
8 13 -16 0
1 -17 24 0
